8531
42, 7, 2, 17, 3, 41, 9, 10, 8, 19, 45, 32, 22, 1, 49, 36, 35, 37, 24, 48, 6, 4, 25, 12, 51, 11, 52, 13, 14, 47, 26, 27, 28, 33, 43, 15, 5, 38, 40, 39, 34, 44, 46, 16, 29, 30, 50, 20, 23, 31, 18, 21
